c ind 1 18 19 20 21 22 23 24 25 26 27 28 29 30 31 32 33 0
p cnf 66 128
-4 -6 0
5 -6 0
4 -5 6 0
-4 -8 0
5 -8 0
7 -8 0
4 -5 -7 8 0
-4 -10 0
5 -10 0
7 -10 0
9 -10 0
4 -5 -7 -9 10 0
-4 -12 0
5 -12 0
7 -12 0
9 -12 0
11 -12 0
4 -5 -7 -9 -11 12 0
-4 -13 0
5 -13 0
7 -13 0
9 -13 0
-11 -13 0
4 -5 -7 -9 11 13 0
-4 -14 0
5 -14 0
7 -14 0
-9 -14 0
4 -5 -7 9 14 0
-4 -15 0
5 -15 0
-7 -15 0
4 -5 7 15 0
-4 -16 0
-5 -16 0
4 5 16 0
17 0
-1 18 -34 0
1 -18 -34 0
-1 -18 34 0
1 18 34 0
-34 0
1 -36 0
-23 -36 0
-1 23 36 0
-2 -36 -37 0
2 36 -37 0
-2 36 37 0
2 -36 37 0
-37 0
2 -39 0
-28 -39 0
-2 28 39 0
-3 -39 -40 0
3 39 -40 0
-3 39 40 0
3 -39 40 0
-40 0
3 -42 0
-33 -42 0
-3 33 42 0
-4 -42 -43 0
4 42 -43 0
-4 42 43 0
4 -42 43 0
-43 0
-33 44 0
33 -44 0
-33 -45 0
33 -45 0
33 46 0
-45 46 0
-33 45 -46 0
-5 -46 -47 0
5 46 -47 0
-5 46 47 0
5 -46 47 0
-47 0
-23 48 0
23 -48 0
-23 -49 0
23 -49 0
23 50 0
-49 50 0
-23 49 -50 0
-7 -50 -51 0
7 50 -51 0
-7 50 51 0
7 -50 51 0
-51 0
-18 52 0
18 -52 0
-18 -53 0
18 -53 0
18 54 0
-53 54 0
-18 53 -54 0
-9 -54 -55 0
9 54 -55 0
-9 54 55 0
9 -54 55 0
-55 0
-28 56 0
28 -56 0
-28 -57 0
28 -57 0
28 58 0
-57 58 0
-28 57 -58 0
-11 -58 -59 0
11 58 -59 0
-11 58 59 0
11 -58 59 0
-59 0
13 14 15 16 0
-60 -62 -64 0
60 62 -64 0
-60 62 64 0
60 -62 64 0
-61 -63 -65 0
61 63 -65 0
-61 63 65 0
61 -63 65 0
-64 -66 0
-65 -66 0
64 65 66 0
-17 66 0
17 -66 0
c __CPROVER_malloc_is_new_array#1 FALSE
c check::$tmp::tmp_if_expr$1!0@1#1 35
c goto_symex::\guard#1 1
c check::$tmp::tmp_if_expr$1!0@1#2 -23
c check::$tmp::tmp_if_expr$1!0@1#3 35
c check::$tmp::tmp_if_expr$1!0@1#4 FALSE
c check::$tmp::tmp_if_expr$1!0@1#5 2
c check::$tmp::tmp_if_expr$2!0@1#1 38
c check::$tmp::tmp_if_expr$2!0@1#2 -28
c check::$tmp::tmp_if_expr$2!0@1#3 38
c check::$tmp::tmp_if_expr$2!0@1#4 FALSE
c check::$tmp::tmp_if_expr$2!0@1#5 3
c check::$tmp::tmp_if_expr$3!0@1#1 41
c check::$tmp::tmp_if_expr$3!0@1#2 -33
c check::$tmp::tmp_if_expr$3!0@1#3 41
c check::$tmp::tmp_if_expr$3!0@1#4 FALSE
c check::$tmp::tmp_if_expr$3!0@1#5 4
c goto_symex::\guard#2 5
c goto_symex::\guard#3 7
c goto_symex::\guard#4 9
c goto_symex::\guard#5 11
c __CPROVER_thread_id!0#1 FALSE FALSE FALSE FALSE FALSE FALSE FALSE FALSE FALSE FALSE FALSE FALSE FALSE FALSE FALSE FALSE FALSE FALSE FALSE FALSE FALSE FALSE FALSE FALSE FALSE FALSE FALSE FALSE FALSE FALSE FALSE FALSE FALSE FALSE FALSE FALSE FALSE FALSE FALSE FALSE FALSE FALSE FALSE FALSE FALSE FALSE FALSE FALSE FALSE FALSE FALSE FALSE FALSE FALSE FALSE FALSE FALSE FALSE FALSE FALSE FALSE FALSE FALSE FALSE
c __CPROVER_rounding_mode!0#1 FALSE FALSE FALSE FALSE FALSE FALSE FALSE FALSE FALSE FALSE FALSE FALSE FALSE FALSE FALSE FALSE FALSE FALSE FALSE FALSE FALSE FALSE FALSE FALSE FALSE FALSE FALSE FALSE FALSE FALSE FALSE FALSE
c __CPROVER_pipe_count#1 FALSE FALSE FALSE FALSE FALSE FALSE FALSE FALSE FALSE FALSE FALSE FALSE FALSE FALSE FALSE FALSE FALSE FALSE FALSE FALSE FALSE FALSE FALSE FALSE FALSE FALSE FALSE FALSE FALSE FALSE FALSE FALSE
c __CPROVER_deallocated#1 FALSE FALSE FALSE FALSE FALSE FALSE FALSE FALSE FALSE FALSE FALSE FALSE FALSE FALSE FALSE FALSE FALSE FALSE FALSE FALSE FALSE FALSE FALSE FALSE FALSE FALSE FALSE FALSE FALSE FALSE FALSE FALSE FALSE FALSE FALSE FALSE FALSE FALSE FALSE FALSE FALSE FALSE FALSE FALSE FALSE FALSE FALSE FALSE FALSE FALSE FALSE FALSE FALSE FALSE FALSE FALSE FALSE FALSE FALSE FALSE FALSE FALSE FALSE FALSE
c __CPROVER_dead_object#1 FALSE FALSE FALSE FALSE FALSE FALSE FALSE FALSE FALSE FALSE FALSE FALSE FALSE FALSE FALSE FALSE FALSE FALSE FALSE FALSE FALSE FALSE FALSE FALSE FALSE FALSE FALSE FALSE FALSE FALSE FALSE FALSE FALSE FALSE FALSE FALSE FALSE FALSE FALSE FALSE FALSE FALSE FALSE FALSE FALSE FALSE FALSE FALSE FALSE FALSE FALSE FALSE FALSE FALSE FALSE FALSE FALSE FALSE FALSE FALSE FALSE FALSE FALSE FALSE
c __CPROVER_next_thread_id#1 FALSE FALSE FALSE FALSE FALSE FALSE FALSE FALSE FALSE FALSE FALSE FALSE FALSE FALSE FALSE FALSE FALSE FALSE FALSE FALSE FALSE FALSE FALSE FALSE FALSE FALSE FALSE FALSE FALSE FALSE FALSE FALSE FALSE FALSE FALSE FALSE FALSE FALSE FALSE FALSE FALSE FALSE FALSE FALSE FALSE FALSE FALSE FALSE FALSE FALSE FALSE FALSE FALSE FALSE FALSE FALSE FALSE FALSE FALSE FALSE FALSE FALSE FALSE FALSE
c __CPROVER_malloc_object#1 FALSE FALSE FALSE FALSE FALSE FALSE FALSE FALSE FALSE FALSE FALSE FALSE FALSE FALSE FALSE FALSE FALSE FALSE FALSE FALSE FALSE FALSE FALSE FALSE FALSE FALSE FALSE FALSE FALSE FALSE FALSE FALSE FALSE FALSE FALSE FALSE FALSE FALSE FALSE FALSE FALSE FALSE FALSE FALSE FALSE FALSE FALSE FALSE FALSE FALSE FALSE FALSE FALSE FALSE FALSE FALSE FALSE FALSE FALSE FALSE FALSE FALSE FALSE FALSE
c __CPROVER_malloc_size#1 FALSE FALSE FALSE FALSE FALSE FALSE FALSE FALSE FALSE FALSE FALSE FALSE FALSE FALSE FALSE FALSE FALSE FALSE FALSE FALSE FALSE FALSE FALSE FALSE FALSE FALSE FALSE FALSE FALSE FALSE FALSE FALSE FALSE FALSE FALSE FALSE FALSE FALSE FALSE FALSE FALSE FALSE FALSE FALSE FALSE FALSE FALSE FALSE FALSE FALSE FALSE FALSE FALSE FALSE FALSE FALSE FALSE FALSE FALSE FALSE FALSE FALSE FALSE FALSE
c check::1::x!0@1#1 18 19 20 21 22 23 24 25 26 27 28 29 30 31 32 33
c __CPROVER_memory_leak#1 FALSE FALSE FALSE FALSE FALSE FALSE FALSE FALSE FALSE FALSE FALSE FALSE FALSE FALSE FALSE FALSE FALSE FALSE FALSE FALSE FALSE FALSE FALSE FALSE FALSE FALSE FALSE FALSE FALSE FALSE FALSE FALSE FALSE FALSE FALSE FALSE FALSE FALSE FALSE FALSE FALSE FALSE FALSE FALSE FALSE FALSE FALSE FALSE FALSE FALSE FALSE FALSE FALSE FALSE FALSE FALSE FALSE FALSE FALSE FALSE FALSE FALSE FALSE FALSE
